135
10000000
1457230
1598471
2386955
1110455
2044135
1154109
133509
1361211
2366456
914988
237179
1973209
195765
841523
1516697
1465588
296611
374649
1184236
340516
480809
505890
33183
665714
280968
773269
2275571
1625528
778707
931820
1967093
251834
955378
2049740
550131
1204545
1974126
1152216
517432
787470
255027
1942529
2178631
778512
32222
1139488
1377583
1096240
1072667
989334
1264521
932798
1384614
687629
1461973
1998729
111980
160586
2104164
1902349
2299732
1139200
2272631
2099325
59898
1838398
1699637
968293
2030200
38315
1464153
116905
360285
953950
1258540
2016331
1052659
761529
963789
2480124
190269
1630153
895215
1580483
1617148
1456989
615197
1222493
388119
1373284
2443880
270460
2151114
1560364
1759890
2421430
1530286
2042470
1722133
228692
520921
1016090
651425
1989925
273142
1083933
1479162
447347
1039714
963690
133570
1351
2030344
184936
1424249
909928
701773
114208
2158920
341919
1381426
695834
1371974
539308
301021
286503
500296
2220350
2136161
987821
226117
80418
2319043
210979
715747
